Problem:    
Rows:       256
Columns:    89 (72 integer, 72 binary)
Non-zeros:  960
Status:     INTEGER OPTIMAL
Objective:  value = 128.63659 (MINimum)

   No.   Row name        Activity     Lower bound   Upper bound
------ ------------    ------------- ------------- -------------
     1 r.5                   1128.64             0               
     2 r.6                  -941.388      -986.441               
     3 r.7                   128.637             0               
     4 r.8                    58.612      -976.318               
     5 r.9                   128.637             0               
     6 r.10                  95.5902      -983.643               
     7 r.11                  1128.64             0               
     8 r.12                  -904.41      -972.412               
     9 r.13                  128.637             0               
    10 r.14                  95.5902      -982.452               
    11 r.15                  1128.64             0               
    12 r.16                 -931.997      -964.431               
    13 r.17                  128.637             0               
    14 r.18                   32.433      -989.657               
    15 r.19                  1128.64             0               
    16 r.20                 -967.567      -979.661               
    17 r.21                  1128.64             0               
    18 r.22                 -960.846      -986.318               
    19 r.23                  128.637             0               
    20 r.24                  63.7253      -975.373               
    21 r.25                  1128.64             0               
    22 r.26                 -997.315      -997.315               
    23 r.27                  128.637             0               
    24 r.28                 -970.473      -970.473               
    25 r.29                  1128.64             0               
    26 r.30                 -871.363      -929.975               
    27 r.31                  128.637             0               
    28 r.32                  128.637      -846.204               
    29 r.33                  128.637             0               
    30 r.34                  128.637       -978.72               
    31 r.35                  1128.64             0               
    32 r.36                 -871.363      -966.954               
    33 r.37                        1             1             = 
    34 r.38                        1             1             = 
    35 r.39                        1             1             = 
    36 r.40                        1             1             = 
    37 r.41                        1             1             = 
    38 r.42                        1             1             = 
    39 r.43                        1             1             = 
    40 r.44                        1             1             = 
    41 r.45                     1001             2               
    42 r.46                    -1001         -1001               
    43 r.47                  2036.98      -983.643               
    44 r.48                     1001             2               
    45 r.49                    -1001         -1001               
    46 r.50                  2036.98      -972.412               
    47 r.51                     1001             2               
    48 r.52                    -1001         -1001               
    49 r.53                  2036.98      -982.452               
    50 r.54                     1001             2               
    51 r.55                    -1001         -1001               
    52 r.56                  2009.39      -964.431               
    53 r.57                     1001             2               
    54 r.58                    -1001         -1001               
    55 r.59                  1973.82      -989.657               
    56 r.60                     1001             2               
    57 r.61                    -1001         -1001               
    58 r.62                  1973.82      -979.661               
    59 r.63                        2             2               
    60 r.64                       -2         -1001               
    61 r.65                 -19.4578      -986.318               
    62 r.66                     1000             2               
    63 r.67                    -1000         -1001               
    64 r.68                  2005.11      -975.373               
    65 r.69                 -953.482      -986.441               
    66 r.70                  46.5181      -976.318               
    67 r.71                  37.9037      -986.441               
    68 r.72                   1037.9      -976.318               
    69 r.73                 -929.975      -929.975               
    70 r.74                  70.0246      -846.204               
    71 r.75                 -929.975      -929.975               
    72 r.76                  70.0246      -846.204               
    73 r.77                     1001             2               
    74 r.78                    -1001         -1001               
    75 r.79                  2070.02       -978.72               
    76 r.80                     1001             2               
    77 r.81                    -1001         -1001               
    78 r.82                  2070.02      -966.954               
    79 r.83                     1001             2               
    80 r.84                    -1001         -1001               
    81 r.85                  1963.02       13.5593               
    82 r.86                     1001             2               
    83 r.87                    -1001         -1001               
    84 r.88                  1963.02       23.6821               
    85 r.89                     1000             2               
    86 r.90                    -1000         -1001               
    87 r.91                     2000      -982.452               
    88 r.92                        2             2               
    89 r.93                       -2         -1001               
    90 r.94                 -27.5877      -964.431               
    91 r.95                     1000             2               
    92 r.96                    -1000         -1001               
    93 r.97                  1936.84      -989.657               
    94 r.98                        2             2               
    95 r.99                       -2         -1001               
    96 r.100                -63.1572      -979.661               
    97 r.101                    1001             2               
    98 r.102                   -1001         -1001               
    99 r.103                 1943.56      -986.318               
   100 r.104                    1001             2               
   101 r.105                   -1001         -1001               
   102 r.106                 1968.14      -975.373               
   103 r.107                 83.4963      -983.643               
   104 r.108                -916.504      -972.412               
   105 r.109                 1074.88      -983.643               
   106 r.110                 74.8819      -972.412               
   107 r.111                    1001             2               
   108 r.112                   -1001         -1001               
   109 r.113                 2033.05      -929.975               
   110 r.114                    1001             2               
   111 r.115                   -1001         -1001               
   112 r.116                 2033.05      -846.204               
   113 r.117                 33.0464       -978.72               
   114 r.118                -966.954      -966.954               
   115 r.119                 33.0464       -978.72               
   116 r.120                -966.954      -966.954               
   117 r.121                    1001             2               
   118 r.122                   -1001         -1001               
   119 r.123                 1963.02       13.5593               
   120 r.124                    1001             2               
   121 r.125                   -1001         -1001               
   122 r.126                 1990.61       23.6821               
   123 r.127                    1000             2               
   124 r.128                   -1000         -1001               
   125 r.129                    2000       16.3575               
   126 r.130                       2             2               
   127 r.131                      -2         -1001               
   128 r.132                 27.5877       27.5877               
   129 r.133                 63.1572      -982.452               
   130 r.134                -964.431      -964.431               
   131 r.135                 63.1572      -982.452               
   132 r.136                -964.431      -964.431               
   133 r.137                    1001             2               
   134 r.138                   -1001         -1001               
   135 r.139                 1943.56      -986.318               
   136 r.140                    1001             2               
   137 r.141                   -1001         -1001               
   138 r.142                 1995.72      -975.373               
   139 r.143                 83.4963      -982.452               
   140 r.144                -944.091      -964.431               
   141 r.145                 1074.88      -982.452               
   142 r.146                 47.2942      -964.431               
   143 r.147                    1001             2               
   144 r.148                   -1001         -1001               
   145 r.149                 2033.05      -929.975               
   146 r.150                    1001             2               
   147 r.151                   -1001         -1001               
   148 r.152                 2060.63      -846.204               
   149 r.153                 33.0464       -978.72               
   150 r.154                -966.954      -966.954               
   151 r.155                 60.6341       -978.72               
   152 r.156                -939.366      -966.954               
   153 r.157                    1001             2               
   154 r.158                   -1001         -1001               
   155 r.159                 2026.18       13.5593               
   156 r.160                    1001             2               
   157 r.161                   -1001         -1001               
   158 r.162                 2026.18       23.6821               
   159 r.163                    1000             2               
   160 r.164                   -1000         -1001               
   161 r.165                 2063.16       16.3575               
   162 r.166                       2             2               
   163 r.167                      -2         -1001               
   164 r.168                 63.1572       27.5877               
   165 r.169                    1001             2               
   166 r.170                   -1001         -1001               
   167 r.171                 2006.72      -986.318               
   168 r.172                    1001             2               
   169 r.173                   -1001         -1001               
   170 r.174                 2031.29      -975.373               
   171 r.175                 20.3391      -989.657               
   172 r.176                -979.661      -979.661               
   173 r.177                 1011.72      -989.657               
   174 r.178                 11.7247      -979.661               
   175 r.179                    1001             2               
   176 r.180                   -1001         -1001               
   177 r.181                  2096.2      -929.975               
   178 r.182                    1001             2               
   179 r.183                   -1001         -1001               
   180 r.184                  2096.2      -846.204               
   181 r.185                 96.2036       -978.72               
   182 r.186                -903.796      -966.954               
   183 r.187                 96.2036       -978.72               
   184 r.188                -903.796      -966.954               
   185 r.189                       2             2               
   186 r.190                      -2         -1001               
   187 r.191                 13.5593       13.5593               
   188 r.192                    1000             2               
   189 r.193                   -1000         -1001               
   190 r.194                    2000       23.6821               
   191 r.195                    1001             2               
   192 r.196                   -1001         -1001               
   193 r.197                 2050.54       16.3575               
   194 r.198                    1001             2               
   195 r.199                   -1001         -1001               
   196 r.200                 2036.98       27.5877               
   197 r.201                    1001             2               
   198 r.202                   -1001         -1001               
   199 r.203                 2050.54       17.5481               
   200 r.204                    1001             2               
   201 r.205                   -1001         -1001               
   202 r.206                 2009.39       35.5695               
   203 r.207                    1001             2               
   204 r.208                   -1001         -1001               
   205 r.209                 1987.38       10.3426               
   206 r.210                    1001             2               
   207 r.211                   -1001         -1001               
   208 r.212                 1973.82       20.3391               
   209 r.213                 -972.94      -986.318               
   210 r.214                 51.6314      -975.373               
   211 r.215                 18.4459      -986.318               
   212 r.216                 1043.02      -975.373               
   213 r.217                -916.416      -929.975               
   214 r.218                 83.5839      -846.204               
   215 r.219                -929.975      -929.975               
   216 r.220                 70.0246      -846.204               
   217 r.221                 83.5839       -978.72               
   218 r.222                -916.416      -966.954               
   219 r.223                 70.0246       -978.72               
   220 r.224                -929.975      -966.954               
   221 r.225                    1001             2               
   222 r.226                   -1001         -1001               
   223 r.227                 1966.95       16.3575               
   224 r.228                    1001             2               
   225 r.229                   -1001         -1001               
   226 r.230                 1966.95       27.5877               
   227 r.231                    1001             2               
   228 r.232                   -1001         -1001               
   229 r.233                 1966.95       17.5481               
   230 r.234                    1001             2               
   231 r.235                   -1001         -1001               
   232 r.236                 1939.37       35.5695               
   233 r.237                    1001             2               
   234 r.238                   -1001         -1001               
   235 r.239                  1903.8       10.3426               
   236 r.240                    1001             2               
   237 r.241                   -1001         -1001               
   238 r.242                  1903.8       20.3391               
   239 r.243                    1001             2               
   240 r.244                   -1001         -1001               
   241 r.245                    2000       -978.72               
   242 r.246                    1001             2               
   243 r.247                   -1001         -1001               
   244 r.248                    2000      -966.954               
   245 r.249                    1001             2               
   246 r.250                   -1001         -1001               
   247 r.251                 1929.98       13.5593               
   248 r.252                    1001             2               
   249 r.253                   -1001         -1001               
   250 r.254                 1929.98       23.6821               
   251 r.255                    1001             2               
   252 r.256                   -1001         -1001               
   253 r.257                    2000       70.0246               
   254 r.258                    1001             2               
   255 r.259                   -1001         -1001               
   256 r.260                    2000       153.796               

   No. Column name       Activity     Lower bound   Upper bound
------ ------------    ------------- ------------- -------------
     1 tt                    128.637             0               
     2 s_1_1        *              1             0             1 
     3 t_1_1                 70.0246             0               
     4 s_1_7        *              1             0             1 
     5 s_2_1        *              0             0             1 
     6 t_2_1                 70.0246             0               
     7 s_2_7        *              0             0             1 
     8 s_1_2        *              0             0             1 
     9 t_1_2                 33.0464             0               
    10 s_1_8        *              0             0             1 
    11 s_2_2        *              1             0             1 
    12 t_2_2                 33.0464             0               
    13 s_2_8        *              1             0             1 
    14 s_1_3        *              0             0             1 
    15 t_1_3                 33.0464             0               
    16 s_2_3        *              1             0             1 
    17 t_2_3                 60.6341             0               
    18 s_1_4        *              0             0             1 
    19 t_1_4                 96.2036             0               
    20 s_2_4        *              1             0             1 
    21 t_2_4                 96.2036             0               
    22 s_1_5        *              1             0             1 
    23 t_1_5                 83.5839             0               
    24 s_2_5        *              0             0             1 
    25 t_2_5                 70.0246             0               
    26 s_1_6        *              1             0             1 
    27 t_1_6                 116.543             0               
    28 s_2_6        *              0             0             1 
    29 t_2_6                 1107.93             0               
    30 t_1_7                       0             0               
    31 t_2_7                       0             0               
    32 t_1_8                       0             0               
    33 t_2_8                       0             0               
    34 r_1_1_2      *              1             0             1 
    35 u_1_1_2      *              0             0             1 
    36 r_2_1_2      *              1             0             1 
    37 u_2_1_2      *              0             0             1 
    38 r_1_1_3      *              1             0             1 
    39 u_1_1_3      *              0             0             1 
    40 r_2_1_3      *              1             0             1 
    41 u_2_1_3      *              0             0             1 
    42 r_1_1_4      *              1             0             1 
    43 u_1_1_4      *              0             0             1 
    44 r_2_1_4      *              1             0             1 
    45 u_2_1_4      *              0             0             1 
    46 r_1_1_5      *              0             0             1 
    47 u_1_1_5      *              0             0             1 
    48 r_2_1_5      *              1             0             1 
    49 u_2_1_5      *              0             0             1 
    50 r_1_1_8      *              1             0             1 
    51 u_1_1_8      *              0             0             1 
    52 r_2_1_8      *              1             0             1 
    53 u_2_1_8      *              0             0             1 
    54 r_1_2_3      *              1             0             1 
    55 u_1_2_3      *              0             0             1 
    56 r_2_2_3      *              0             0             1 
    57 u_2_2_3      *              0             0             1 
    58 r_1_2_4      *              1             0             1 
    59 u_1_2_4      *              0             0             1 
    60 r_2_2_4      *              0             0             1 
    61 u_2_2_4      *              0             0             1 
    62 r_1_2_5      *              1             0             1 
    63 u_1_2_5      *              0             0             1 
    64 r_2_2_5      *              1             0             1 
    65 u_2_2_5      *              0             0             1 
    66 r_1_2_7      *              1             0             1 
    67 u_1_2_7      *              0             0             1 
    68 r_2_2_7      *              1             0             1 
    69 u_2_2_7      *              0             0             1 
    70 r_1_3_5      *              1             0             1 
    71 u_1_3_5      *              0             0             1 
    72 r_2_3_5      *              1             0             1 
    73 u_2_3_5      *              0             0             1 
    74 r_1_3_7      *              1             0             1 
    75 u_1_3_7      *              0             0             1 
    76 r_2_3_7      *              1             0             1 
    77 u_2_3_7      *              0             0             1 
    78 r_1_4_5      *              1             0             1 
    79 u_1_4_5      *              0             0             1 
    80 r_2_4_5      *              1             0             1 
    81 u_2_4_5      *              0             0             1 
    82 r_1_4_7      *              1             0             1 
    83 u_1_4_7      *              0             0             1 
    84 r_2_4_7      *              1             0             1 
    85 u_2_4_7      *              0             0             1 
    86 r_1_7_8      *              1             0             1 
    87 u_1_7_8      *              0             0             1 
    88 r_2_7_8      *              1             0             1 
    89 u_2_7_8      *              0             0             1 

Integer feasibility conditions:

KKT.PE: max.abs.err = 4.55e-13 on row 161
        max.rel.err = 1.09e-16 on row 8
        High quality

KKT.PB: max.abs.err = 2.27e-13 on row 172
        max.rel.err = 3.66e-16 on row 187
        High quality

End of output
